/*Objective function*/
max: 420 LP1 + 420 LP2 + 420 LP3 + 360 MP1 + 360 MP2 + 360 MP3 + 300 SP1 + 300 SP2 + 300 SP3;

/*Constraints*/
LP1 + MP1 + SP1 <= 750;
LP2 + MP2 + SP2 <= 900;
LP3 + MP3 + SP3 <= 450;
20 LP1 + 15 MP1 + 12 SP1 <= 750;
20 LP2 + 15 MP2 + 12 SP2 <= 900;
20 LP3 + 15 MP3 + 12 SP3 <= 450;
LP1 + LP2 + LP3	<= 900;
MP1 + MP2 + MP3 <= 1200;
SP1 + SP2 + SP3 <= 750;
0.0013  LP1 + 0.0013  MP1 + 0.0013 SP1 - 0.0011  LP1 - 0.0011  MP1 - 0.0011  SP1 = 0;
0.0013  LP1 + 0.0013  MP1 + 0.0013 SP1 - 0.0022  LP1 - 0.0022  MP1 - 0.0022  SP1 = 0;
0.0011  LP1 + 0.0011  MP1 + 0.0011 SP1 - 0.0022  LP1 - 0.0022  MP1 - 0.0022  SP1 = 0;